NAME : eil76.561072.tour
COMMENT : Cost = 280851_561072
COMMENT : Found by LKH [Keld Helsgaun] Thu Jan 19 22:20:05 2017
TYPE : TOUR
DIMENSION : 77
TOUR_SECTION
1
33
63
16
51
6
68
4
75
76
67
26
17
12
40
3
44
32
9
39
72
58
10
31
55
25
50
18
24
49
23
56
41
43
42
64
22
77
73
2
74
30
48
29
45
27
52
34
46
8
35
7
53
11
38
65
66
59
14
19
54
13
57
15
5
37
20
70
60
71
69
36
47
21
61
28
62
-1
EOF
